proyfinal/src/viki/013/experimentInOfficeAgust.take6.output/bfc8ede1-0f8d-43a0-b4aa-2ee3a5a6177f.als.out
Reading from standard input... Use '--help' for help.
============================[ Problem Statistics ]=============================
|                                                                             |
|  Number of variables:         87638                                         |
|  Number of clauses:          161767                                         |
|  Parse time:                   0.04 s                                       |
|                                                                             |
============================[ Search Statistics ]==============================
| Conflicts |          ORIGINAL         |          LEARNT          | Progress |
|           |    Vars  Clauses Literals |    Limit  Clauses Lit/Cl |          |
===============================================================================
|       100 |   63843   110432   275937 |    40491      100     39 | 27.151 % |
|       250 |   63732   110316   275672 |    44540      246     36 | 27.278 % |
|       475 |   63732   109982   274882 |    48994      471     65 | 27.278 % |
|       812 |   63732   109982   274882 |    53894      808     62 | 27.278 % |
|      1318 |   63732   109982   274882 |    59283     1314     67 | 27.278 % |
|      2077 |   63672   109742   274321 |    65212     2068     67 | 27.347 % |
|      3216 |   63672   109742   274321 |    71733     3207     87 | 27.347 % |
|      4924 |   63600   109448   273637 |    78906     4910     94 | 27.429 % |
|      7486 |   53138    78566   197877 |    86797     7420     85 | 39.366 % |
|     11330 |   52931    77466   195107 |    95477    11245     79 | 39.603 % |
|     17096 |   52853    77120   194316 |   105025    15224     76 | 39.692 % |
===============================================================================
restarts              : 80
conflicts             : 22631          (6556 /sec)
decisions             : 75823          (0.00 % random) (21966 /sec)
propagations          : 35255157       (10213599 /sec)
conflict literals     : 1691223        (44.20 % deleted)
Memory used           : 39.97 MB
CPU time              : 3.45179 s

INDETERMINATE
